WARNING: for repeatability, setting FPU to use double precision
============================[ Problem Statistics ]=============================
|                                                                             |
|  Number of variables:            50                                         |
|  Number of clauses:             218                                         |
|  Parse time:                   0.00 s                                       |
|                                                                             |
============================[ Search Statistics ]==============================
| Conflicts |          ORIGINAL         |          LEARNT          | Progress |
|           |    Vars  Clauses Literals |    Limit  Clauses Lit/Cl |          |
===============================================================================
===============================================================================
restarts              : 1
conflicts             : 11             (8082 /sec)
decisions             : 32             (0.00 % random) (23512 /sec)
propagations          : 158            (116091 /sec)
conflict literals     : 45             (10.00 % deleted)
Memory used           : 20.00 MB
CPU time              : 0.001361 s

SATISFIABLE
